NAME : portgen-15-1
COMMENT : portgen N=15, seed=1
TYPE : TSP
DIMENSION : 15
EDGE_WEIGHT_TYPE : EUC_2D
NODE_COORD_SECTION
1 921674 250065
2 377506 896048
3 169771 218380
4 877708 813387
5 123344 400022
6 30588 418434
7 113951 210517
8 924356 970453
9 194244 23254
10 45333 569958
11 264618 206470
12 212018 319685
13 423427 581180
14 212210 21951
15 733992 691156
